min: x8;
m=15;
/* Constraints */


m-1000 b1_8<=0;
y8>=y1;
m-1000 b1_2<=0;
m-1000 b2_8<=0;
y8>=y2;
m-1000 b1_3<=0;
m-1000 b3_8<=0;
y8>=y3;
m-1000 b1_4<=0;
m-1000 b4_8<=0;
y8>=y4;
m-1000 b1_5<=0;
m-1000 b5_8<=0;
y8>=y5;
m-1000 b1_6<=0;
m-1000 b6_8<=0;
y8>=y6;
m-1000 b1_7<=0;
m-1000 b7_8<=0;
y8>=y7;
m-1000 b1_8<=0;
/* 1 */
x1>=0;
y1>=0;
x1+8 <=500;
y1+ 8<=12;
x1+ 8 - 1240 + 1240b1_2 - x2<=0;
y1+ 8 - 1240 + 1240u1_2 - y2<=0;
x1+ 8 - 1240 + 1240b1_3 - x3<=0;
y1+ 8 - 1240 + 1240u1_3 - y3<=0;
x1+ 8 - 1240 + 1240b1_4 - x4<=0;
y1+ 8 - 1240 + 1240u1_4 - y4<=0;
x1+ 8 - 1240 + 1240b1_5 - x5<=0;
y1+ 8 - 1240 + 1240u1_5 - y5<=0;
x1+ 8 - 1240 + 1240b1_6 - x6<=0;
y1+ 8 - 1240 + 1240u1_6 - y6<=0;
x1+ 8 - 1240 + 1240b1_7 - x7<=0;
y1+ 8 - 1240 + 1240u1_7 - y7<=0;
x1+ 8 - 1240 + 1240b1_8 - x8<=0;
y1+ 8 - 1240 + 1240u1_8 - y8<=0;
/* 2 */
x2>=0;
y2>=0;
x2+12 <=500;
y2+ 8<=12;
x2+ 12 - 1240 + 1240b2_1 - x1<=0;
y2+ 8 - 1240 + 1240u2_1 - y1<=0;
x2+ 12 - 1240 + 1240b2_3 - x3<=0;
y2+ 8 - 1240 + 1240u2_3 - y3<=0;
x2+ 12 - 1240 + 1240b2_4 - x4<=0;
y2+ 8 - 1240 + 1240u2_4 - y4<=0;
x2+ 12 - 1240 + 1240b2_5 - x5<=0;
y2+ 8 - 1240 + 1240u2_5 - y5<=0;
x2+ 12 - 1240 + 1240b2_6 - x6<=0;
y2+ 8 - 1240 + 1240u2_6 - y6<=0;
x2+ 12 - 1240 + 1240b2_7 - x7<=0;
y2+ 8 - 1240 + 1240u2_7 - y7<=0;
x2+ 12 - 1240 + 1240b2_8 - x8<=0;
y2+ 8 - 1240 + 1240u2_8 - y8<=0;
/* 3 */
x3>=0;
y3>=0;
x3+10 <=500;
y3+ 7<=12;
x3+ 10 - 1240 + 1240b3_1 - x1<=0;
y3+ 7 - 1240 + 1240u3_1 - y1<=0;
x3+ 10 - 1240 + 1240b3_2 - x2<=0;
y3+ 7 - 1240 + 1240u3_2 - y2<=0;
x3+ 10 - 1240 + 1240b3_4 - x4<=0;
y3+ 7 - 1240 + 1240u3_4 - y4<=0;
x3+ 10 - 1240 + 1240b3_5 - x5<=0;
y3+ 7 - 1240 + 1240u3_5 - y5<=0;
x3+ 10 - 1240 + 1240b3_6 - x6<=0;
y3+ 7 - 1240 + 1240u3_6 - y6<=0;
x3+ 10 - 1240 + 1240b3_7 - x7<=0;
y3+ 7 - 1240 + 1240u3_7 - y7<=0;
x3+ 10 - 1240 + 1240b3_8 - x8<=0;
y3+ 7 - 1240 + 1240u3_8 - y8<=0;
/* 4 */
x4>=0;
y4>=0;
x4+6 <=500;
y4+ 7<=12;
x4+ 6 - 1240 + 1240b4_1 - x1<=0;
y4+ 7 - 1240 + 1240u4_1 - y1<=0;
x4+ 6 - 1240 + 1240b4_2 - x2<=0;
y4+ 7 - 1240 + 1240u4_2 - y2<=0;
x4+ 6 - 1240 + 1240b4_3 - x3<=0;
y4+ 7 - 1240 + 1240u4_3 - y3<=0;
x4+ 6 - 1240 + 1240b4_5 - x5<=0;
y4+ 7 - 1240 + 1240u4_5 - y5<=0;
x4+ 6 - 1240 + 1240b4_6 - x6<=0;
y4+ 7 - 1240 + 1240u4_6 - y6<=0;
x4+ 6 - 1240 + 1240b4_7 - x7<=0;
y4+ 7 - 1240 + 1240u4_7 - y7<=0;
x4+ 6 - 1240 + 1240b4_8 - x8<=0;
y4+ 7 - 1240 + 1240u4_8 - y8<=0;
/* 5 */
x5>=0;
y5>=0;
x5+14 <=500;
y5+ 6<=12;
x5+ 14 - 1240 + 1240b5_1 - x1<=0;
y5+ 6 - 1240 + 1240u5_1 - y1<=0;
x5+ 14 - 1240 + 1240b5_2 - x2<=0;
y5+ 6 - 1240 + 1240u5_2 - y2<=0;
x5+ 14 - 1240 + 1240b5_3 - x3<=0;
y5+ 6 - 1240 + 1240u5_3 - y3<=0;
x5+ 14 - 1240 + 1240b5_4 - x4<=0;
y5+ 6 - 1240 + 1240u5_4 - y4<=0;
x5+ 14 - 1240 + 1240b5_6 - x6<=0;
y5+ 6 - 1240 + 1240u5_6 - y6<=0;
x5+ 14 - 1240 + 1240b5_7 - x7<=0;
y5+ 6 - 1240 + 1240u5_7 - y7<=0;
x5+ 14 - 1240 + 1240b5_8 - x8<=0;
y5+ 6 - 1240 + 1240u5_8 - y8<=0;
/* 6 */
x6>=0;
y6>=0;
x6+6 <=500;
y6+ 3<=12;
x6+ 6 - 1240 + 1240b6_1 - x1<=0;
y6+ 3 - 1240 + 1240u6_1 - y1<=0;
x6+ 6 - 1240 + 1240b6_2 - x2<=0;
y6+ 3 - 1240 + 1240u6_2 - y2<=0;
x6+ 6 - 1240 + 1240b6_3 - x3<=0;
y6+ 3 - 1240 + 1240u6_3 - y3<=0;
x6+ 6 - 1240 + 1240b6_4 - x4<=0;
y6+ 3 - 1240 + 1240u6_4 - y4<=0;
x6+ 6 - 1240 + 1240b6_5 - x5<=0;
y6+ 3 - 1240 + 1240u6_5 - y5<=0;
x6+ 6 - 1240 + 1240b6_7 - x7<=0;
y6+ 3 - 1240 + 1240u6_7 - y7<=0;
x6+ 6 - 1240 + 1240b6_8 - x8<=0;
y6+ 3 - 1240 + 1240u6_8 - y8<=0;
/* 7 */
x7>=0;
y7>=0;
x7+16 <=500;
y7+ 5<=12;
x7+ 16 - 1240 + 1240b7_1 - x1<=0;
y7+ 5 - 1240 + 1240u7_1 - y1<=0;
x7+ 16 - 1240 + 1240b7_2 - x2<=0;
y7+ 5 - 1240 + 1240u7_2 - y2<=0;
x7+ 16 - 1240 + 1240b7_3 - x3<=0;
y7+ 5 - 1240 + 1240u7_3 - y3<=0;
x7+ 16 - 1240 + 1240b7_4 - x4<=0;
y7+ 5 - 1240 + 1240u7_4 - y4<=0;
x7+ 16 - 1240 + 1240b7_5 - x5<=0;
y7+ 5 - 1240 + 1240u7_5 - y5<=0;
x7+ 16 - 1240 + 1240b7_6 - x6<=0;
y7+ 5 - 1240 + 1240u7_6 - y6<=0;
x7+ 16 - 1240 + 1240b7_8 - x8<=0;
y7+ 5 - 1240 + 1240u7_8 - y8<=0;
/* 8 */
x8>=0;
y8>=0;
x8+1 <=500;
y8+ 1<=12;
x8+ 1 - 1240 + 1240b8_1 - x1<=0;
y8+ 1 - 1000 + 1240u8_1 - y1<=0;
x8+ 1 - 1240 + 1240b8_2 - x2<=0;
y8+ 1 - 1000 + 1240u8_2 - y2<=0;
x8+ 1 - 1240 + 1240b8_3 - x3<=0;
y8+ 1 - 1000 + 1240u8_3 - y3<=0;
x8+ 1 - 1240 + 1240b8_4 - x4<=0;
y8+ 1 - 1000 + 1240u8_4 - y4<=0;
x8+ 1 - 1240 + 1240b8_5 - x5<=0;
y8+ 1 - 1000 + 1240u8_5 - y5<=0;
x8+ 1 - 1240 + 1240b8_6 - x6<=0;
y8+ 1 - 1000 + 1240u8_6 - y6<=0;
x8+ 1 - 1240 + 1240b8_7 - x7<=0;
y8+ 1 - 1000 + 1240u8_7 - y7<=0;
u1_2+u2_1<=1;
b1_2+b2_1<=1;
b1_2+b2_1+u1_2+u2_1>=1;
u1_3+u3_1<=1;
b1_3+b3_1<=1;
b1_3+b3_1+u1_3+u3_1>=1;
u1_4+u4_1<=1;
b1_4+b4_1<=1;
b1_4+b4_1+u1_4+u4_1>=1;
u1_5+u5_1<=1;
b1_5+b5_1<=1;
b1_5+b5_1+u1_5+u5_1>=1;
u1_6+u6_1<=1;
b1_6+b6_1<=1;
b1_6+b6_1+u1_6+u6_1>=1;
u1_7+u7_1<=1;
b1_7+b7_1<=1;
b1_7+b7_1+u1_7+u7_1>=1;
u1_8+u8_1<=1;
b1_8+b8_1<=1;
b1_8+b8_1+u1_8+u8_1>=1;
u2_1+u1_2<=1;
b2_1+b1_2<=1;
b2_1+b1_2+u2_1+u1_2>=1;
u2_3+u3_2<=1;
b2_3+b3_2<=1;
b2_3+b3_2+u2_3+u3_2>=1;
u2_4+u4_2<=1;
b2_4+b4_2<=1;
b2_4+b4_2+u2_4+u4_2>=1;
u2_5+u5_2<=1;
b2_5+b5_2<=1;
b2_5+b5_2+u2_5+u5_2>=1;
u2_6+u6_2<=1;
b2_6+b6_2<=1;
b2_6+b6_2+u2_6+u6_2>=1;
u2_7+u7_2<=1;
b2_7+b7_2<=1;
b2_7+b7_2+u2_7+u7_2>=1;
u2_8+u8_2<=1;
b2_8+b8_2<=1;
b2_8+b8_2+u2_8+u8_2>=1;
u3_1+u1_3<=1;
b3_1+b1_3<=1;
b3_1+b1_3+u3_1+u1_3>=1;
u3_2+u2_3<=1;
b3_2+b2_3<=1;
b3_2+b2_3+u3_2+u2_3>=1;
u3_4+u4_3<=1;
b3_4+b4_3<=1;
b3_4+b4_3+u3_4+u4_3>=1;
u3_5+u5_3<=1;
b3_5+b5_3<=1;
b3_5+b5_3+u3_5+u5_3>=1;
u3_6+u6_3<=1;
b3_6+b6_3<=1;
b3_6+b6_3+u3_6+u6_3>=1;
u3_7+u7_3<=1;
b3_7+b7_3<=1;
b3_7+b7_3+u3_7+u7_3>=1;
u3_8+u8_3<=1;
b3_8+b8_3<=1;
b3_8+b8_3+u3_8+u8_3>=1;
u4_1+u1_4<=1;
b4_1+b1_4<=1;
b4_1+b1_4+u4_1+u1_4>=1;
u4_2+u2_4<=1;
b4_2+b2_4<=1;
b4_2+b2_4+u4_2+u2_4>=1;
u4_3+u3_4<=1;
b4_3+b3_4<=1;
b4_3+b3_4+u4_3+u3_4>=1;
u4_5+u5_4<=1;
b4_5+b5_4<=1;
b4_5+b5_4+u4_5+u5_4>=1;
u4_6+u6_4<=1;
b4_6+b6_4<=1;
b4_6+b6_4+u4_6+u6_4>=1;
u4_7+u7_4<=1;
b4_7+b7_4<=1;
b4_7+b7_4+u4_7+u7_4>=1;
u4_8+u8_4<=1;
b4_8+b8_4<=1;
b4_8+b8_4+u4_8+u8_4>=1;
u5_1+u1_5<=1;
b5_1+b1_5<=1;
b5_1+b1_5+u5_1+u1_5>=1;
u5_2+u2_5<=1;
b5_2+b2_5<=1;
b5_2+b2_5+u5_2+u2_5>=1;
u5_3+u3_5<=1;
b5_3+b3_5<=1;
b5_3+b3_5+u5_3+u3_5>=1;
u5_4+u4_5<=1;
b5_4+b4_5<=1;
b5_4+b4_5+u5_4+u4_5>=1;
u5_6+u6_5<=1;
b5_6+b6_5<=1;
b5_6+b6_5+u5_6+u6_5>=1;
u5_7+u7_5<=1;
b5_7+b7_5<=1;
b5_7+b7_5+u5_7+u7_5>=1;
u5_8+u8_5<=1;
b5_8+b8_5<=1;
b5_8+b8_5+u5_8+u8_5>=1;
u6_1+u1_6<=1;
b6_1+b1_6<=1;
b6_1+b1_6+u6_1+u1_6>=1;
u6_2+u2_6<=1;
b6_2+b2_6<=1;
b6_2+b2_6+u6_2+u2_6>=1;
u6_3+u3_6<=1;
b6_3+b3_6<=1;
b6_3+b3_6+u6_3+u3_6>=1;
u6_4+u4_6<=1;
b6_4+b4_6<=1;
b6_4+b4_6+u6_4+u4_6>=1;
u6_5+u5_6<=1;
b6_5+b5_6<=1;
b6_5+b5_6+u6_5+u5_6>=1;
u6_7+u7_6<=1;
b6_7+b7_6<=1;
b6_7+b7_6+u6_7+u7_6>=1;
u6_8+u8_6<=1;
b6_8+b8_6<=1;
b6_8+b8_6+u6_8+u8_6>=1;
u7_1+u1_7<=1;
b7_1+b1_7<=1;
b7_1+b1_7+u7_1+u1_7>=1;
u7_2+u2_7<=1;
b7_2+b2_7<=1;
b7_2+b2_7+u7_2+u2_7>=1;
u7_3+u3_7<=1;
b7_3+b3_7<=1;
b7_3+b3_7+u7_3+u3_7>=1;
u7_4+u4_7<=1;
b7_4+b4_7<=1;
b7_4+b4_7+u7_4+u4_7>=1;
u7_5+u5_7<=1;
b7_5+b5_7<=1;
b7_5+b5_7+u7_5+u5_7>=1;
u7_6+u6_7<=1;
b7_6+b6_7<=1;
b7_6+b6_7+u7_6+u6_7>=1;
u7_8+u8_7<=1;
b7_8+b8_7<=1;
b7_8+b8_7+u7_8+u8_7>=1;
u8_1+u1_8<=1;
b8_1+b1_8<=1;
b8_1+b1_8+u8_1+u1_8>=1;
u8_2+u2_8<=1;
b8_2+b2_8<=1;
b8_2+b2_8+u8_2+u2_8>=1;
u8_3+u3_8<=1;
b8_3+b3_8<=1;
b8_3+b3_8+u8_3+u3_8>=1;
u8_4+u4_8<=1;
b8_4+b4_8<=1;
b8_4+b4_8+u8_4+u4_8>=1;
u8_5+u5_8<=1;
b8_5+b5_8<=1;
b8_5+b5_8+u8_5+u5_8>=1;
u8_6+u6_8<=1;
b8_6+b6_8<=1;
b8_6+b6_8+u8_6+u6_8>=1;
u8_7+u7_8<=1;
b8_7+b7_8<=1;
b8_7+b7_8+u8_7+u7_8>=1;
int x1,x2,x3,x4,x5,x6,x7,x8,m,M;
int y1,y2,y3,y4,y5,y6,y7,y8;
bin u1_2,u1_3,u1_4,u1_5,u1_6,u1_7,u1_8,u2_1,u2_3,u2_4,u2_5,u2_6,u2_7,u2_8,u3_1,u3_2,u3_4,u3_5,u3_6,u3_7,u3_8,u4_1,u4_2,u4_3,u4_5,u4_6,u4_7,u4_8,u5_1,u5_2,u5_3,u5_4,u5_6,u5_7,u5_8,u6_1,u6_2,u6_3,u6_4,u6_5,u6_7,u6_8,u7_1,u7_2,u7_3,u7_4,u7_5,u7_6,u7_8,u8_1,u8_2,u8_3,u8_4,u8_5,u8_6,u8_7;
bin b1_2,b1_3,b1_4,b1_5,b1_6,b1_7,b1_8,b2_1,b2_3,b2_4,b2_5,b2_6,b2_7,b2_8,b3_1,b3_2,b3_4,b3_5,b3_6,b3_7,b3_8,b4_1,b4_2,b4_3,b4_5,b4_6,b4_7,b4_8,b5_1,b5_2,b5_3,b5_4,b5_6,b5_7,b5_8,b6_1,b6_2,b6_3,b6_4,b6_5,b6_7,b6_8,b7_1,b7_2,b7_3,b7_4,b7_5,b7_6,b7_8,b8_1,b8_2,b8_3,b8_4,b8_5,b8_6,b8_7;
